SYSTEM=heterojunction
ISTART=0
ICHARG=2
IBRION=2
ISYM=0
# ISPIN=2
# MAGMOM= 5*5.0 13*1.0 40*1.0 8*5.0
NSW=1000
POTIM=0.5
EDIFFG=-0.05
ISMEAR=0
SIGMA=0.05
ISIF=3
ENCUT=400
PREC=Normal
LREAL=Auto
ALGO=Fast
NPAR=4
GGA=PE
LWAVE=.F.
LCHARG=.F.
LAECHG=.F.
IVDW=11
