Ti3AlC2\(0\0\1)\(2)\(0\0\1)\(0\0\-1)\(0\0\1)\(2)\(0\0\1)
1.0
       15.9603996277         0.0000000000         0.0000000000
        0.0000000000         9.2147998810         0.0000000000
        0.0000000000         0.0000000000        21.9685993195
    C   Ti    O
   36   54   36
Cartesian
     1.794108545         0.363984612         5.837496427
     9.774308478         4.971384518         5.837496427
     0.907508321         1.899815224         3.249814815
     8.887708611         6.507215439         3.249814815
     1.794108545         3.435645870         5.837496427
     9.774308478         8.043045811         5.837496427
     0.907508321         4.971384518         3.249814815
     8.887708611         0.363984612         3.249814815
     1.794108545         6.507215439         5.837496427
     9.774308478         1.899815224         5.837496427
     0.907508321         8.043045811         3.249814815
     8.887708611         3.435645870         3.249814815
     4.454228384         8.043045811         5.837496427
    12.434427722         3.435645870         5.837496427
     3.567468458         0.363984612         3.249814815
    11.547668034         4.971384518         3.249814815
     4.454228384         1.899815224         5.837496427
    12.434427722         6.507215439         5.837496427
     3.567468458         3.435645870         3.249814815
    11.547668034         8.043045811         3.249814815
     4.454228384         4.971384518         5.837496427
    12.434427722         0.363984612         5.837496427
     3.567468458         6.507215439         3.249814815
    11.547668034         1.899815224         3.249814815
     7.114348104         6.507215439         5.837496427
    15.094547917         1.899815224         5.837496427
     6.227588415         8.043045811         3.249814815
    14.207788229         3.435645870         3.249814815
     7.114348104         0.363984612         5.837496427
    15.094547917         4.971384518         5.837496427
     6.227588415         1.899815224         3.249814815
    14.207788229         6.507215439         3.249814815
     7.114348104         3.435645870         5.837496427
    15.094547917         8.043045811         5.837496427
     6.227588415         4.971384518         3.249814815
    14.207788229         0.363984612         3.249814815
     0.907508321         1.899815224         6.916374237
     8.887708611         6.507215439         6.916374237
     1.794108545         0.363984612         2.170717347
     9.774308478         4.971384518         2.170717347
     0.020748520         0.363984612         4.543984943
     8.000947971         4.971384518         4.543984943
     0.907508321         4.971384518         6.916374237
     8.887708611         0.363984612         6.916374237
     1.794108545         3.435645870         2.170717347
     9.774308478         8.043045811         2.170717347
     0.020748520         3.435645870         4.543984943
     8.000947971         8.043045811         4.543984943
     0.907508321         8.043045811         6.916374237
     8.887708611         3.435645870         6.916374237
     1.794108545         6.507215439         2.170717347
     9.774308478         1.899815224         2.170717347
     0.020748520         6.507215439         4.543984943
     8.000947971         1.899815224         4.543984943
     3.567468458         0.363984612         6.916374237
    11.547668034         4.971384518         6.916374237
     4.454228384         8.043045811         2.170717347
    12.434427722         3.435645870         2.170717347
     2.680868353         8.043045811         4.543984943
    10.661068166         3.435645870         4.543984943
     3.567468458         3.435645870         6.916374237
    11.547668034         8.043045811         6.916374237
     4.454228384         1.899815224         2.170717347
    12.434427722         6.507215439         2.170717347
     2.680868353         1.899815224         4.543984943
    10.661068166         6.507215439         4.543984943
     3.567468458         6.507215439         6.916374237
    11.547668034         1.899815224         6.916374237
     4.454228384         4.971384518         2.170717347
    12.434427722         0.363984612         2.170717347
     2.680868353         4.971384518         4.543984943
    10.661068166         0.363984612         4.543984943
     6.227588415         8.043045811         6.916374237
    14.207788229         3.435645870         6.916374237
     7.114348104         6.507215439         2.170717347
    15.094547917         1.899815224         2.170717347
     5.340988072         6.507215439         4.543984943
    13.321188362         1.899815224         4.543984943
     6.227588415         1.899815224         6.916374237
    14.207788229         6.507215439         6.916374237
     7.114348104         0.363984612         2.170717347
    15.094547917         4.971384518         2.170717347
     5.340988072         0.363984612         4.543984943
    13.321188362         4.971384518         4.543984943
     6.227588415         4.971384518         6.916374237
    14.207788229         0.363984612         6.916374237
     7.114348104         3.435645870         2.170717347
    15.094547917         8.043045811         2.170717347
     5.340988072         3.435645870         4.543984943
    13.321188362         8.043045811         4.543984943
     2.459178430         1.515926699         0.997374433
    10.439377769         6.123326776         0.997374433
     2.459178430         4.587495856         0.997374433
    10.439377769         9.194895796         0.997374433
     2.459178430         7.659157148         0.997374433
    10.439377769         3.051757482         0.997374433
     5.119298150         9.194895796         0.997374433
    13.099497964         4.587495856         0.997374433
     5.119298150         3.051757482         0.997374433
    13.099497964         7.659157148         0.997374433
     5.119298150         6.123326776         0.997374433
    13.099497964         1.515926699         0.997374433
     7.779417870         7.659157148         0.997374433
    15.759618159         3.051757482         0.997374433
     7.779417870         1.515926699         0.997374433
    15.759618159         6.123326776         0.997374433
     7.779417870         4.587495856         0.997374433
    15.759618159         9.194895796         0.997374433
     1.652220545         0.118318030         7.966034069
     9.632420002         4.725717722         7.966034069
     1.652220545         3.189887350         7.966034069
     9.632420002         7.797287291         7.966034069
     1.652220545         6.261456370         7.966034069
     9.632420002         1.654056567         7.966034069
     4.312340384         7.797287291         7.966034069
    12.292540198         3.189887350         7.966034069
     4.312340384         1.654056567         7.966034069
    12.292540198         6.261456370         7.966034069
     4.312340384         4.725717722         7.966034069
    12.292540198         0.118318030         7.966034069
     6.972460104         6.261456370         7.966034069
    14.952660393         1.654056567         7.966034069
     6.972460104         0.118318030         7.966034069
    14.952660393         4.725717722         7.966034069
     6.972460104         3.189887350         7.966034069
    14.952660393         7.797287291         7.966034069
