K-Spacing Value to Generate K-Mesh: 0.050
0
Gamma
   1   2   1
0.0  0.0  0.0
